#comment
1
6.418 0 0
-3.209 5.55815 0
0 0 10.422
Mg 
16 
Direct
0 0 0
0.166667 0.333333 0.25
0.5 0 0
0.666667 0.333333 0.25
0 0.5 0
0.166667 0.833333 0.25
0.5 0.5 0
0.666667 0.833333 0.25
0 0 0.5
0.166667 0.333333 0.75
0.5 0 0.5
0.666667 0.333333 0.75
0 0.5 0.5
0.166667 0.833333 0.75
0.5 0.5 0.5
0.666667 0.833333 0.75
